data;

param num_top:=4;

#nodes and edges of the physical network
param n := 10;

set E := (1,2) (1,3) (1,7) (2,4) (2,7) (3,5) (4,8) (5,6) (5,7) (6,7) (6,9) (7,8) (7,9) (8,10) (9,10) ;

#nodes and edges of the virtual networks
set Nl[1] := 9 6 8 3 4 ;
set Nl[2] := 8 6 1 10 4 ;
set Nl[3] := 2 1 6 5 10 ;
set Nl[4] := 2 4 6 5 10 ;

set El[1] := (6,9) (6,8) (3,8) (3,4) (4,9) (3,9) (3,6) (4,8) (4,6) (8,9) ;
set El[2] := (6,8) (1,6) (1,10) (4,10) (4,8) (4,6) (6,10) (8,10) (1,4) (1,8) ;
set El[3] := (1,2) (1,6) (5,6) (5,10) (2,10) (2,5) (1,5) (2,6) (6,10) (1,10) ;
set El[4] := (2,4) (4,6) (5,6) (5,10) (2,10) (4,10) (2,6) (4,5) (6,10) (2,5) ;
